c b=7,c=193
p cnf 22 186
1 7 -14 0
2 4 6 7 -20 0
1 3 5 7 -21 0
1 -7 14 0
1 2 4 6 -7 20 0
1 2 4 6 -7 21 0
6 -13 0
1 3 5 6 -19 0
1 2 4 6 -22 0
1 3 5 -6 7 20 0
7 -22 0
1 3 5 -6 -7 -20 0
-6 -7 22 0
-6 13 0
1 3 5 -6 19 0
1 3 5 -6 -21 0
5 -12 0
1 2 4 5 -18 0
2 4 -5 7 -20 0
2 4 6 7 -21 0
1 2 4 -5 -7 20 0
1 2 4 -5 6 19 0
-5 -6 7 21 0
2 4 -6 -7 -21 0
1 2 4 -5 -6 -19 0
-5 12 0
1 2 4 -5 18 0
4 -11 0
1 3 4 -17 0
1 3 5 6 7 -20 0
1 3 5 6 -7 20 0
5 6 -7 21 0
1 3 -4 6 -19 0
5 6 -22 0
1 3 -4 -6 19 0
1 3 -4 5 18 0
-4 -5 6 7 20 0
-4 -5 6 -7 -20 0
-4 -5 -7 22 0
-4 -5 6 -21 0
1 3 -5 -6 7 -20 0
1 3 -5 -6 -7 20 0
-4 -5 -7 -21 0
1 3 -4 -5 -18 0
-4 11 0
1 3 -4 17 0
3 -10 0
1 2 3 -16 0
4 5 7 -21 0
2 4 5 6 -19 0
4 5 -6 7 20 0
4 5 -6 -7 -20 0
2 4 5 -6 19 0
4 5 -6 -21 0
1 2 -3 5 -18 0
2 -3 6 7 -21 0
2 -3 -6 -7 -21 0
1 2 -3 -5 18 0
1 2 -3 4 17 0
-3 -4 5 7 -20 0
-3 -4 5 -7 20 0
-3 -4 5 6 19 0
-3 -4 -6 7 21 0
-3 -4 5 -6 -19 0
2 -4 -5 6 -19 0
-3 -4 -6 7 -20 0
-3 -4 -6 -7 20 0
2 -4 -5 -6 19 0
1 2 -3 -4 -17 0
-3 10 0
1 2 -3 16 0
2 -9 0
1 2 -15 0
3 4 6 7 -20 0
3 4 6 -7 20 0
3 4 6 -7 21 0
3 4 6 -22 0
3 4 5 -18 0
3 4 -5 7 -20 0
3 4 6 7 -21 0
3 4 -5 -7 20 0
3 4 -5 6 19 0
3 4 -6 -7 -21 0
3 4 -5 -6 -19 0
3 4 -5 18 0
1 -2 4 -17 0
1 -2 5 6 7 -20 0
1 -2 5 6 -7 20 0
1 -2 -5 -6 7 -20 0
1 -2 -5 -6 -7 20 0
1 -2 -4 17 0
1 -2 3 16 0
-2 -3 4 6 -19 0
-2 -3 4 -6 19 0
-2 -3 4 5 18 0
-2 -3 -5 6 7 20 0
-2 -3 -5 6 -7 -20 0
-2 -3 -5 -7 22 0
-2 -3 -5 6 -21 0
-2 -3 -5 -7 -21 0
-2 -3 4 -5 -18 0
-3 -4 6 7 -21 0
-3 -4 -6 -7 -21 0
-3 -4 5 -18 0
-2 -3 -5 6 -19 0
-2 -3 -5 -6 19 0
-3 -4 -5 18 0
1 -2 -3 -16 0
-2 9 0
1 -2 15 0
1 -8 0
-1 7 14 0
-1 2 7 15 0
-1 3 7 -16 0
2 3 5 7 -21 0
-1 -7 -14 0
2 -7 -15 0
-1 2 3 -7 16 0
2 3 5 6 -19 0
2 3 5 -6 7 20 0
2 3 5 -6 -7 -20 0
2 3 5 -6 19 0
2 3 5 -6 -21 0
-1 2 6 7 -21 0
-1 2 -6 -7 -21 0
2 3 4 -17 0
2 3 5 6 7 -20 0
-1 2 5 6 -7 20 0
2 3 -4 6 -19 0
2 3 -4 -6 19 0
2 3 -4 5 18 0
2 3 -5 -6 7 -20 0
-1 2 -5 -6 -7 20 0
2 3 -4 -5 -18 0
2 3 -4 17 0
-1 -3 7 16 0
2 -3 4 7 17 0
2 -3 5 7 -18 0
-1 2 -3 -7 -16 0
-1 2 4 -7 -17 0
-1 -3 4 5 -7 18 0
-1 4 5 6 -19 0
-1 4 5 -6 19 0
2 -3 -5 7 18 0
2 4 -5 6 7 19 0
-1 -3 4 -5 -7 -18 0
-1 -3 4 6 -7 -19 0
-1 -3 -5 -7 22 0
-1 2 -3 4 -5 6 -20 0
-1 -3 -5 6 -21 0
2 4 -5 -6 7 -19 0
-1 -3 4 -6 -7 19 0
-1 -3 -5 -7 -21 0
2 -3 -4 7 -17 0
-1 2 -4 -7 17 0
-1 -3 -5 6 -7 -20 0
-1 -4 -5 6 -19 0
-1 -4 -5 -6 19 0
-1 -2 7 -15 0
-2 -7 15 0
-1 -2 3 5 -18 0
-1 3 6 7 -21 0
-1 3 -6 -7 -21 0
-1 -2 3 -5 18 0
-1 -2 3 4 17 0
-1 -2 -4 5 7 -20 0
-1 -2 -4 5 -7 20 0
-1 -2 -4 5 6 19 0
-1 -2 -4 -6 7 21 0
-1 -2 -4 5 -6 -19 0
-1 -2 -4 -6 7 -20 0
-1 -2 -4 -6 -7 20 0
-1 -2 3 -4 -17 0
-1 -2 3 -16 0
-2 -3 5 6 7 -20 0
-1 -3 5 6 -7 20 0
-2 -3 -5 -6 7 -20 0
-1 -3 -5 -6 -7 20 0
-2 -3 4 -17 0
-1 -4 6 7 -21 0
-1 -4 -6 -7 -21 0
-1 -2 -4 5 -18 0
-1 -2 -4 -5 18 0
-2 -3 -4 17 0
-1 -2 -3 16 0
-1 8 0
